8 6 81
7 7 1 7 2 8 1 8 2 8 3 1 1 7 3 6 16 16 26 26 37 37 48 48 57 60 66 66 77 
3 4 1 4 2 1 2 44 58 58 64 72 77 
5 6 1 6 2 2 1 2 2 6 3 10 22 22 41 46 58 58 68 68 75 
4 5 1 5 2 3 1 3 2 30 41 41 58 66 74 74 81 
8 6 1 5 1 5 1 2 1 2 1 1 1 1 1 1 2 0 10 10 18 18 30 30 36 36 46 46 54 54 60 66 72 
7 7 1 8 1 8 1 4 1 4 1 3 1 3 1 0 6 6 18 18 24 24 36 36 44 44 54 54 66 
